environments_harbor/cryptominisat_xor_clause_optimization_medium/environment/data/cnf_files/file2.cnf
c CNF file with mixed content including XOR pattern
c This file contains various clauses including an XOR constraint
c between variables 4 and 5
p cnf 5 8
-4 -5 0
4 5 0
1 2 3 0
-1 3 0
2 -3 4 0
1 -2 5 0
-1 -2 -3 0
3 4 5 0